Route #1:
Route #2: 26 3 2 23 10 25
Route #3: 31 19 14
Route #4: 7 6
Route #5: 20 15 22
Route #6: 16 30
Route #7: 5 9 18 8 11 28 4 29
Route #8: 1
Route #9: 27
Route #10: 17 21 13 12
Route #11: 24

Cost: 1452.9645608266205
